results_rootrelaxation/bin018_060_011.srr.sol
solution status: optimal solution found
objective value:                                    0
_var84_                            0.0426871048770514 	(obj:0)
_var1494_                           0.290548952326995 	(obj:0)
_var2722_                         0.00712517081487474 	(obj:0)
_var2727_                           0.169427757761446 	(obj:0)
_var2732_                           0.161197090969976 	(obj:0)
_var2798_                          0.0973821975764843 	(obj:0)
_var2807_                          0.0741430767967194 	(obj:0)
_var2829_                            0.25039432826488 	(obj:0)
_var2851_                          0.0946545985828293 	(obj:0)
_var2856_                           0.163116643614834 	(obj:0)
_var2873_                           0.143656463193128 	(obj:0)
_var2875_                         0.00894024124375841 	(obj:0)
_var2884_                           0.106839021648873 	(obj:0)
_var2885_                            0.17732446684306 	(obj:0)
_var2888_                           0.138069455325577 	(obj:0)
_var2892_                           0.150415986288313 	(obj:0)
_var2895_                          0.0337669348973072 	(obj:0)
_var2899_                            0.10727900886546 	(obj:0)
_var2903_                           0.202784033131229 	(obj:0)
_var2904_                          0.0746616661957442 	(obj:0)
_var2905_                          0.0965839310796447 	(obj:0)
_var2908_                            0.17934078526105 	(obj:0)
_var2909_                         0.00970652949826578 	(obj:0)
_var2913_                           0.122640545666526 	(obj:0)
_var2916_                            0.13318539655158 	(obj:0)
_var2918_                           0.252138558824584 	(obj:0)
_var2921_                         0.00960402907587738 	(obj:0)
_var2924_                           0.317679011165212 	(obj:0)
_var2927_                           0.237751212015597 	(obj:0)
_var2935_                          0.0210535089081542 	(obj:0)
_var2937_                           0.168845632934018 	(obj:0)
_var2940_                           0.165512444646781 	(obj:0)
_var2953_                           0.333619237543185 	(obj:0)
_var2960_                          0.0353835718027435 	(obj:0)
_var2969_                           0.287210164323238 	(obj:0)
_var2971_                          0.0541003671562383 	(obj:0)
_var2972_                           0.154501121799097 	(obj:0)
_var2973_                            0.18032679359173 	(obj:0)
_var2975_                          0.0675023050594688 	(obj:0)
_var2979_                         0.00358931230493417 	(obj:0)
_var2982_                          0.0684582438992768 	(obj:0)
_var2984_                           0.221341729443178 	(obj:0)
_var2995_                           0.148194957129642 	(obj:0)
_var2997_                           0.266075127187627 	(obj:0)
_var3002_                           0.250985853084998 	(obj:0)
_var3005_                           0.123996258136045 	(obj:0)
_var3014_                          0.0935897632756902 	(obj:0)
_var3015_                           0.182547379113149 	(obj:0)
_var3019_                           0.103903372479516 	(obj:0)
_var3027_                           0.080199412586048 	(obj:0)
_var3028_                          0.0445067593437295 	(obj:0)
_var3029_                          0.0596831600478624 	(obj:0)
_var3031_                           0.127932974552464 	(obj:0)
_var3032_                            0.19139030170669 	(obj:0)
_var3033_                          0.0848984949034171 	(obj:0)
_var3035_                           0.155880443537849 	(obj:0)
_var3038_                            0.13008459966712 	(obj:0)
_var3039_                          0.0829465796980455 	(obj:0)
_var3042_                           0.316453378646564 	(obj:0)
_var3047_                           0.352463235636689 	(obj:0)
_var3050_                           0.113828952456373 	(obj:0)
_var3054_                           0.126267389205168 	(obj:0)
_var3056_                          0.0870941224587423 	(obj:0)
_var3057_                           0.105430137204451 	(obj:0)
_var3058_                          0.0182071419927289 	(obj:0)
_var3060_                           0.129760124720476 	(obj:0)
_var3064_                           0.294276282988174 	(obj:0)
_var3065_                           0.112470189052514 	(obj:0)
_var3066_                           0.137963023248922 	(obj:0)
_var3070_                          0.0190345347910601 	(obj:0)
_var3072_                          0.0552472429964306 	(obj:0)
_var3074_                           0.312227622974843 	(obj:0)
_var3078_                          0.0310320564802775 	(obj:0)
_var3081_                           0.139073268363269 	(obj:0)
_var3083_                          0.0695932759792229 	(obj:0)
_var3087_                           0.197198091728898 	(obj:0)
_var3090_                          0.0100754468933625 	(obj:0)
_var3091_                          0.0888616708895681 	(obj:0)
_var3092_                           0.110793936260025 	(obj:0)
_var3093_                          0.0238295195507939 	(obj:0)
_var3094_                          0.0182944141566179 	(obj:0)
_var3095_                          0.0852739034329717 	(obj:0)
_var3096_                           0.102568513036709 	(obj:0)
_var3097_                           0.102617789473456 	(obj:0)
_var3098_                          0.0598033355260828 	(obj:0)
_var3100_                          0.0768217907990321 	(obj:0)
_var3102_                           0.317076096893526 	(obj:0)
_var3103_                          0.0593697318605921 	(obj:0)
_var3105_                          0.0375566398264771 	(obj:0)
_var3107_                          0.0249659220018008 	(obj:0)
_var3109_                           0.106279014416664 	(obj:0)
_var3110_                           0.106902903414666 	(obj:0)
_var3112_                           0.308059678596573 	(obj:0)
_var3113_                          0.0839482152085526 	(obj:0)
_var3114_                           0.281193506534643 	(obj:0)
_var3117_                          0.0018884539042468 	(obj:0)
_var3118_                           0.113818357419489 	(obj:0)
_var3119_                           0.156273756292094 	(obj:0)
_var3120_                          0.0194526934960933 	(obj:0)
_var3121_                           0.124154894809112 	(obj:0)
_var3122_                         0.00980122821711205 	(obj:0)
_var3124_                          0.0757482531015934 	(obj:0)
_var3126_                           0.013419875273614 	(obj:0)
_var3130_                           0.218913102638475 	(obj:0)
_var3133_                           0.190556419899471 	(obj:0)
_var3136_                           0.393496094036982 	(obj:0)
_var3137_                           0.287506818810336 	(obj:0)
_var3138_                          0.0150185775385003 	(obj:0)
_var3139_                          0.0229100573486307 	(obj:0)
_var3141_                          0.0914192458220363 	(obj:0)
_var3142_                           0.125641430430207 	(obj:0)
_var3144_                          0.0349401456186452 	(obj:0)
_var3146_                           0.114911376879441 	(obj:0)
_var3147_                           0.064219545607431 	(obj:0)
_var3148_                          0.0119199543758435 	(obj:0)
_var3149_                           0.029818112791119 	(obj:0)
_var3150_                           0.108890804952308 	(obj:0)
_var3151_                           0.125666619797655 	(obj:0)
_var3152_                          0.0834909792771817 	(obj:0)
_var3153_                           0.105104838144554 	(obj:0)
_var3154_                          0.0159841774349129 	(obj:0)
_var3155_                           0.111307889637578 	(obj:0)
_var3156_                          0.0799833144789087 	(obj:0)
_var3157_                          0.0325876134144078 	(obj:0)
_var3158_                         0.00206230739407853 	(obj:0)
_var3159_                          0.0694142919258945 	(obj:0)
_var3160_                          0.0402130245991364 	(obj:0)
_var3162_                           0.159050473269127 	(obj:0)
_var3163_                          0.0795382820465256 	(obj:0)
_var3165_                           0.158639420422956 	(obj:0)
_var3166_                          0.0735811175617718 	(obj:0)
_var3168_                           0.061314787737953 	(obj:0)
_var3169_                         9.01014015779153e-05 	(obj:0)
_var3172_                          0.0810145883538532 	(obj:0)
_var3173_                          0.0562401172188589 	(obj:0)
_var3175_                          0.0759618312728113 	(obj:0)
_var3176_                          0.0596580295043179 	(obj:0)
_var3178_                             0.1601564837486 	(obj:0)
_var3180_                           0.121644504717113 	(obj:0)
_var3181_                           0.200129287720432 	(obj:0)
_var3183_                         0.00470822995090855 	(obj:0)
_var3185_                          0.0301738220466032 	(obj:0)
_var3186_                           0.113617011050138 	(obj:0)
_var3191_                          0.0152851499829897 	(obj:0)
_var3194_                         0.00555787513388557 	(obj:0)
_var3195_                           0.184666750140978 	(obj:0)
_var3196_                         0.000940564821136802 	(obj:0)
_var3201_                          0.0667177861826185 	(obj:0)
_var3203_                         0.00197577356622047 	(obj:0)
_var3204_                          0.0280492146328431 	(obj:0)
_var3212_                         0.00753837423297185 	(obj:0)
